% Auto-generated by scripts/generate_dzn.py
% problem_type   = regex
% instance       = regex_65
% source_json    = instances_json/1_medium_blowup/regex_65.json
% blowup         = 4.526315789473684
% representation = DFA

mode = 0;

var_count = 20;
n_constraints = 2;
Q = 76;
S = 3;
q0 = [1, 1];
F = [{48, 49, 50, 51, 52, 53, 54, 55, 56, 57, 58, 59, 60, 61, 62, 63, 64, 65, 66, 67, 68, 69, 70, 71, 72, 73, 74, 75, 76}, {9}];
weights = [7, 5, 4, 3, 3, 1, 3, 5, 7, 3, 10, 8, 8, 10, 1, 1, 5, 6, 10, 9];
d_dfa = array3d(1..2, 1..76, 1..3, [
  % k = 1
    2, 1, 1,
    2, 3, 1,
    4, 1, 1,
    6, 5, 7,
    9, 8, 8,
    11, 10, 8,
    11, 8, 8,
    13, 12, 12,
    15, 14, 16,
    17, 12, 12,
    13, 18, 12,
    20, 19, 19,
    20, 21, 19,
    23, 22, 22,
    25, 24, 22,
    25, 22, 22,
    27, 26, 28,
    29, 19, 19,
    31, 30, 30,
    31, 32, 30,
    33, 30, 30,
    35, 34, 34,
    37, 36, 38,
    39, 34, 34,
    35, 40, 34,
    42, 41, 41,
    44, 43, 41,
    44, 41, 41,
    46, 45, 47,
    49, 48, 48,
    49, 50, 48,
    51, 48, 48,
    53, 52, 54,
    56, 55, 55,
    56, 57, 55,
    59, 58, 58,
    61, 60, 58,
    61, 58, 58,
    63, 62, 64,
    65, 55, 55,
    67, 66, 66,
    69, 68, 70,
    71, 66, 66,
    67, 72, 66,
    74, 73, 73,
    76, 75, 73,
    76, 73, 73,
    2, 1, 1,
    2, 3, 1,
    4, 1, 1,
    6, 5, 7,
    9, 8, 8,
    11, 10, 8,
    11, 8, 8,
    31, 30, 30,
    31, 32, 30,
    33, 30, 30,
    35, 34, 34,
    37, 36, 38,
    39, 34, 34,
    35, 40, 34,
    42, 41, 41,
    44, 43, 41,
    44, 41, 41,
    46, 45, 47,
    20, 19, 19,
    20, 21, 19,
    23, 22, 22,
    25, 24, 22,
    25, 22, 22,
    27, 26, 28,
    29, 19, 19,
    13, 12, 12,
    15, 14, 16,
    17, 12, 12,
    13, 18, 12,

  % k = 2
    1, 2, 1,
    2, 3, 2,
    3, 4, 3,
    4, 5, 4,
    5, 6, 5,
    6, 7, 6,
    7, 8, 7,
    8, 9, 8,
    9, 10, 9,
    10, 10, 10,
    0, 0, 0,
    0, 0, 0,
    0, 0, 0,
    0, 0, 0,
    0, 0, 0,
    0, 0, 0,
    0, 0, 0,
    0, 0, 0,
    0, 0, 0,
    0, 0, 0,
    0, 0, 0,
    0, 0, 0,
    0, 0, 0,
    0, 0, 0,
    0, 0, 0,
    0, 0, 0,
    0, 0, 0,
    0, 0, 0,
    0, 0, 0,
    0, 0, 0,
    0, 0, 0,
    0, 0, 0,
    0, 0, 0,
    0, 0, 0,
    0, 0, 0,
    0, 0, 0,
    0, 0, 0,
    0, 0, 0,
    0, 0, 0,
    0, 0, 0,
    0, 0, 0,
    0, 0, 0,
    0, 0, 0,
    0, 0, 0,
    0, 0, 0,
    0, 0, 0,
    0, 0, 0,
    0, 0, 0,
    0, 0, 0,
    0, 0, 0,
    0, 0, 0,
    0, 0, 0,
    0, 0, 0,
    0, 0, 0,
    0, 0, 0,
    0, 0, 0,
    0, 0, 0,
    0, 0, 0,
    0, 0, 0,
    0, 0, 0,
    0, 0, 0,
    0, 0, 0,
    0, 0, 0,
    0, 0, 0,
    0, 0, 0,
    0, 0, 0,
    0, 0, 0,
    0, 0, 0,
    0, 0, 0,
    0, 0, 0,
    0, 0, 0,
    0, 0, 0,
    0, 0, 0,
    0, 0, 0,
    0, 0, 0,
    0, 0, 0
]);
d_nfa = array3d(1..2, 1..76, 1..3, [
  % k = 1
    {}, {}, {},
    {}, {}, {},
    {}, {}, {},
    {}, {}, {},
    {}, {}, {},
    {}, {}, {},
    {}, {}, {},
    {}, {}, {},
    {}, {}, {},
    {}, {}, {},
    {}, {}, {},
    {}, {}, {},
    {}, {}, {},
    {}, {}, {},
    {}, {}, {},
    {}, {}, {},
    {}, {}, {},
    {}, {}, {},
    {}, {}, {},
    {}, {}, {},
    {}, {}, {},
    {}, {}, {},
    {}, {}, {},
    {}, {}, {},
    {}, {}, {},
    {}, {}, {},
    {}, {}, {},
    {}, {}, {},
    {}, {}, {},
    {}, {}, {},
    {}, {}, {},
    {}, {}, {},
    {}, {}, {},
    {}, {}, {},
    {}, {}, {},
    {}, {}, {},
    {}, {}, {},
    {}, {}, {},
    {}, {}, {},
    {}, {}, {},
    {}, {}, {},
    {}, {}, {},
    {}, {}, {},
    {}, {}, {},
    {}, {}, {},
    {}, {}, {},
    {}, {}, {},
    {}, {}, {},
    {}, {}, {},
    {}, {}, {},
    {}, {}, {},
    {}, {}, {},
    {}, {}, {},
    {}, {}, {},
    {}, {}, {},
    {}, {}, {},
    {}, {}, {},
    {}, {}, {},
    {}, {}, {},
    {}, {}, {},
    {}, {}, {},
    {}, {}, {},
    {}, {}, {},
    {}, {}, {},
    {}, {}, {},
    {}, {}, {},
    {}, {}, {},
    {}, {}, {},
    {}, {}, {},
    {}, {}, {},
    {}, {}, {},
    {}, {}, {},
    {}, {}, {},
    {}, {}, {},
    {}, {}, {},
    {}, {}, {},

  % k = 2
    {}, {}, {},
    {}, {}, {},
    {}, {}, {},
    {}, {}, {},
    {}, {}, {},
    {}, {}, {},
    {}, {}, {},
    {}, {}, {},
    {}, {}, {},
    {}, {}, {},
    {}, {}, {},
    {}, {}, {},
    {}, {}, {},
    {}, {}, {},
    {}, {}, {},
    {}, {}, {},
    {}, {}, {},
    {}, {}, {},
    {}, {}, {},
    {}, {}, {},
    {}, {}, {},
    {}, {}, {},
    {}, {}, {},
    {}, {}, {},
    {}, {}, {},
    {}, {}, {},
    {}, {}, {},
    {}, {}, {},
    {}, {}, {},
    {}, {}, {},
    {}, {}, {},
    {}, {}, {},
    {}, {}, {},
    {}, {}, {},
    {}, {}, {},
    {}, {}, {},
    {}, {}, {},
    {}, {}, {},
    {}, {}, {},
    {}, {}, {},
    {}, {}, {},
    {}, {}, {},
    {}, {}, {},
    {}, {}, {},
    {}, {}, {},
    {}, {}, {},
    {}, {}, {},
    {}, {}, {},
    {}, {}, {},
    {}, {}, {},
    {}, {}, {},
    {}, {}, {},
    {}, {}, {},
    {}, {}, {},
    {}, {}, {},
    {}, {}, {},
    {}, {}, {},
    {}, {}, {},
    {}, {}, {},
    {}, {}, {},
    {}, {}, {},
    {}, {}, {},
    {}, {}, {},
    {}, {}, {},
    {}, {}, {},
    {}, {}, {},
    {}, {}, {},
    {}, {}, {},
    {}, {}, {},
    {}, {}, {},
    {}, {}, {},
    {}, {}, {},
    {}, {}, {},
    {}, {}, {},
    {}, {}, {},
    {}, {}, {}
]);
